c " random instance " 
p edges 200 4151
e 1 7
e 1 10
e 1 19
e 1 20
e 1 33
e 1 36
e 1 42
e 1 48
e 1 54
e 1 56
e 1 59
e 1 65
e 1 66
e 1 67
e 1 69
e 1 84
e 1 85
e 1 95
e 1 98
e 1 100
e 1 106
e 1 122
e 1 123
e 1 126
e 1 127
e 1 128
e 1 132
e 1 133
e 1 136
e 1 140
e 1 146
e 1 149
e 1 152
e 1 157
e 1 161
e 1 165
e 1 167
e 1 169
e 1 170
e 1 172
e 1 174
e 1 178
e 1 184
e 1 190
e 1 196
e 1 198
e 2 8
e 2 13
e 2 15
e 2 36
e 2 41
e 2 43
e 2 58
e 2 64
e 2 68
e 2 70
e 2 71
e 2 73
e 2 78
e 2 81
e 2 84
e 2 85
e 2 89
e 2 95
e 2 99
e 2 100
e 2 106
e 2 108
e 2 113
e 2 114
e 2 117
e 2 128
e 2 129
e 2 147
e 2 148
e 2 153
e 2 159
e 2 163
e 2 165
e 2 186
e 2 189
e 2 193
e 2 194
e 2 196
e 3 5
e 3 6
e 3 9
e 3 13
e 3 25
e 3 26
e 3 29
e 3 38
e 3 40
e 3 41
e 3 48
e 3 51
e 3 54
e 3 59
e 3 63
e 3 66
e 3 70
e 3 71
e 3 72
e 3 73
e 3 87
e 3 89
e 3 91
e 3 92
e 3 95
e 3 98
e 3 103
e 3 106
e 3 114
e 3 118
e 3 125
e 3 126
e 3 127
e 3 128
e 3 132
e 3 134
e 3 138
e 3 141
e 3 145
e 3 146
e 3 147
e 3 149
e 3 150
e 3 153
e 3 154
e 3 155
e 3 156
e 3 162
e 3 172
e 3 174
e 3 176
e 3 178
e 3 181
e 3 187
e 3 196
e 3 197
e 3 198
e 4 24
e 4 29
e 4 33
e 4 49
e 4 50
e 4 57
e 4 60
e 4 64
e 4 65
e 4 68
e 4 70
e 4 78
e 4 82
e 4 89
e 4 92
e 4 95
e 4 96
e 4 98
e 4 101
e 4 110
e 4 112
e 4 122
e 4 124
e 4 125
e 4 126
e 4 127
e 4 130
e 4 140
e 4 147
e 4 148
e 4 158
e 4 174
e 4 187
e 4 188
e 4 189
e 4 192
e 4 194
e 5 18
e 5 23
e 5 24
e 5 33
e 5 34
e 5 39
e 5 55
e 5 57
e 5 64
e 5 68
e 5 73
e 5 74
e 5 81
e 5 84
e 5 85
e 5 92
e 5 101
e 5 102
e 5 103
e 5 112
e 5 115
e 5 127
e 5 129
e 5 131
e 5 149
e 5 150
e 5 162
e 5 171
e 5 187
e 5 196
e 5 199
e 6 12
e 6 14
e 6 25
e 6 29
e 6 34
e 6 40
e 6 41
e 6 43
e 6 46
e 6 52
e 6 53
e 6 58
e 6 66
e 6 69
e 6 71
e 6 76
e 6 90
e 6 91
e 6 92
e 6 97
e 6 102
e 6 109
e 6 113
e 6 122
e 6 126
e 6 138
e 6 140
e 6 149
e 6 153
e 6 155
e 6 162
e 6 166
e 6 167
e 6 170
e 6 171
e 6 174
e 6 183
e 6 188
e 6 190
e 6 191
e 6 194
e 6 196
e 6 197
e 7 12
e 7 17
e 7 22
e 7 29
e 7 32
e 7 36
e 7 40
e 7 51
e 7 52
e 7 68
e 7 74
e 7 75
e 7 78
e 7 79
e 7 83
e 7 84
e 7 93
e 7 100
e 7 107
e 7 110
e 7 112
e 7 114
e 7 117
e 7 122
e 7 126
e 7 128
e 7 130
e 7 134
e 7 137
e 7 141
e 7 144
e 7 146
e 7 151
e 7 164
e 7 166
e 7 167
e 7 169
e 7 172
e 7 174
e 7 175
e 7 183
e 7 188
e 7 194
e 7 200
e 8 15
e 8 20
e 8 21
e 8 28
e 8 32
e 8 42
e 8 45
e 8 47
e 8 51
e 8 53
e 8 56
e 8 60
e 8 67
e 8 72
e 8 77
e 8 78
e 8 85
e 8 87
e 8 92
e 8 97
e 8 98
e 8 99
e 8 104
e 8 105
e 8 107
e 8 112
e 8 147
e 8 157
e 8 178
e 8 186
e 8 187
e 8 192
e 8 194
e 9 10
e 9 16
e 9 18
e 9 25
e 9 28
e 9 30
e 9 41
e 9 44
e 9 49
e 9 54
e 9 57
e 9 58
e 9 64
e 9 68
e 9 70
e 9 73
e 9 78
e 9 79
e 9 85
e 9 87
e 9 99
e 9 100
e 9 102
e 9 109
e 9 112
e 9 113
e 9 142
e 9 146
e 9 152
e 9 153
e 9 154
e 9 161
e 9 165
e 9 167
e 9 173
e 9 174
e 9 178
e 9 179
e 9 183
e 9 187
e 9 192
e 9 198
e 10 28
e 10 31
e 10 32
e 10 35
e 10 45
e 10 51
e 10 54
e 10 61
e 10 62
e 10 65
e 10 66
e 10 70
e 10 75
e 10 77
e 10 78
e 10 82
e 10 85
e 10 91
e 10 93
e 10 96
e 10 98
e 10 100
e 10 103
e 10 104
e 10 105
e 10 108
e 10 109
e 10 111
e 10 116
e 10 118
e 10 127
e 10 136
e 10 144
e 10 146
e 10 150
e 10 152
e 10 154
e 10 155
e 10 156
e 10 157
e 10 169
e 10 172
e 10 179
e 10 194
e 10 197
e 10 198
e 11 15
e 11 17
e 11 23
e 11 25
e 11 32
e 11 56
e 11 81
e 11 89
e 11 93
e 11 102
e 11 109
e 11 113
e 11 119
e 11 121
e 11 124
e 11 130
e 11 138
e 11 139
e 11 145
e 11 154
e 11 163
e 11 171
e 11 172
e 11 175
e 11 177
e 11 181
e 11 189
e 11 199
e 12 18
e 12 22
e 12 28
e 12 35
e 12 36
e 12 37
e 12 41
e 12 42
e 12 44
e 12 47
e 12 50
e 12 55
e 12 56
e 12 60
e 12 61
e 12 62
e 12 80
e 12 82
e 12 84
e 12 91
e 12 93
e 12 94
e 12 103
e 12 104
e 12 105
e 12 110
e 12 113
e 12 114
e 12 116
e 12 124
e 12 126
e 12 132
e 12 141
e 12 143
e 12 144
e 12 145
e 12 146
e 12 147
e 12 148
e 12 154
e 12 158
e 12 166
e 12 168
e 12 175
e 12 187
e 12 196
e 13 18
e 13 19
e 13 22
e 13 24
e 13 28
e 13 31
e 13 44
e 13 49
e 13 51
e 13 53
e 13 55
e 13 56
e 13 59
e 13 76
e 13 88
e 13 98
e 13 107
e 13 109
e 13 114
e 13 135
e 13 150
e 13 157
e 13 163
e 13 167
e 13 168
e 13 169
e 13 187
e 13 193
e 13 196
e 13 199
e 14 15
e 14 17
e 14 21
e 14 24
e 14 48
e 14 51
e 14 55
e 14 58
e 14 60
e 14 62
e 14 63
e 14 64
e 14 69
e 14 70
e 14 72
e 14 75
e 14 78
e 14 89
e 14 90
e 14 95
e 14 98
e 14 99
e 14 104
e 14 105
e 14 107
e 14 110
e 14 117
e 14 118
e 14 128
e 14 134
e 14 138
e 14 154
e 14 155
e 14 163
e 14 167
e 14 169
e 14 176
e 14 178
e 14 191
e 14 195
e 15 16
e 15 17
e 15 32
e 15 34
e 15 37
e 15 38
e 15 40
e 15 43
e 15 49
e 15 57
e 15 60
e 15 63
e 15 65
e 15 66
e 15 74
e 15 78
e 15 80
e 15 85
e 15 102
e 15 106
e 15 107
e 15 116
e 15 122
e 15 132
e 15 138
e 15 140
e 15 161
e 15 162
e 15 164
e 15 171
e 15 172
e 15 183
e 15 185
e 15 187
e 15 188
e 15 194
e 16 19
e 16 24
e 16 28
e 16 34
e 16 36
e 16 37
e 16 45
e 16 48
e 16 50
e 16 54
e 16 55
e 16 64
e 16 67
e 16 69
e 16 71
e 16 78
e 16 87
e 16 98
e 16 107
e 16 122
e 16 126
e 16 129
e 16 136
e 16 140
e 16 141
e 16 144
e 16 152
e 16 156
e 16 160
e 16 168
e 16 169
e 16 171
e 16 178
e 16 186
e 16 187
e 16 190
e 16 192
e 16 193
e 16 200
e 17 20
e 17 42
e 17 43
e 17 45
e 17 52
e 17 57
e 17 58
e 17 67
e 17 75
e 17 92
e 17 104
e 17 108
e 17 114
e 17 117
e 17 119
e 17 122
e 17 126
e 17 128
e 17 133
e 17 135
e 17 136
e 17 141
e 17 149
e 17 150
e 17 155
e 17 165
e 17 168
e 17 170
e 17 173
e 17 177
e 17 184
e 17 186
e 17 187
e 17 188
e 17 190
e 17 191
e 17 194
e 18 22
e 18 26
e 18 38
e 18 51
e 18 72
e 18 78
e 18 80
e 18 83
e 18 86
e 18 97
e 18 98
e 18 99
e 18 101
e 18 105
e 18 108
e 18 117
e 18 118
e 18 120
e 18 121
e 18 124
e 18 125
e 18 127
e 18 141
e 18 142
e 18 144
e 18 148
e 18 151
e 18 156
e 18 158
e 18 162
e 18 164
e 18 173
e 18 176
e 18 178
e 18 182
e 18 183
e 18 184
e 18 187
e 18 191
e 18 192
e 19 20
e 19 21
e 19 22
e 19 25
e 19 33
e 19 41
e 19 44
e 19 46
e 19 49
e 19 54
e 19 55
e 19 56
e 19 57
e 19 74
e 19 76
e 19 80
e 19 83
e 19 87
e 19 99
e 19 106
e 19 113
e 19 118
e 19 122
e 19 123
e 19 126
e 19 127
e 19 129
e 19 134
e 19 135
e 19 138
e 19 145
e 19 150
e 19 155
e 19 159
e 19 168
e 19 171
e 19 179
e 19 183
e 19 185
e 19 199
e 20 24
e 20 25
e 20 27
e 20 29
e 20 31
e 20 34
e 20 36
e 20 38
e 20 41
e 20 44
e 20 45
e 20 46
e 20 53
e 20 54
e 20 62
e 20 63
e 20 65
e 20 68
e 20 69
e 20 72
e 20 74
e 20 76
e 20 77
e 20 78
e 20 87
e 20 88
e 20 89
e 20 93
e 20 95
e 20 96
e 20 110
e 20 111
e 20 112
e 20 119
e 20 123
e 20 126
e 20 128
e 20 137
e 20 138
e 20 139
e 20 141
e 20 143
e 20 146
e 20 158
e 20 166
e 20 167
e 20 169
e 20 173
e 20 180
e 20 181
e 20 186
e 20 188
e 20 193
e 20 197
e 20 199
e 21 22
e 21 25
e 21 30
e 21 35
e 21 36
e 21 38
e 21 45
e 21 49
e 21 50
e 21 58
e 21 60
e 21 61
e 21 72
e 21 76
e 21 84
e 21 85
e 21 89
e 21 91
e 21 94
e 21 104
e 21 105
e 21 114
e 21 116
e 21 118
e 21 119
e 21 121
e 21 129
e 21 130
e 21 138
e 21 141
e 21 142
e 21 150
e 21 156
e 21 158
e 21 159
e 21 160
e 21 162
e 21 163
e 21 175
e 21 176
e 21 179
e 21 183
e 21 188
e 21 192
e 21 194
e 21 195
e 21 196
e 22 32
e 22 42
e 22 44
e 22 45
e 22 47
e 22 49
e 22 52
e 22 57
e 22 72
e 22 73
e 22 74
e 22 75
e 22 78
e 22 89
e 22 91
e 22 97
e 22 102
e 22 109
e 22 111
e 22 113
e 22 123
e 22 125
e 22 134
e 22 143
e 22 151
e 22 155
e 22 162
e 22 165
e 22 174
e 22 175
e 22 177
e 22 185
e 22 189
e 22 191
e 23 26
e 23 27
e 23 35
e 23 54
e 23 57
e 23 58
e 23 65
e 23 68
e 23 79
e 23 80
e 23 83
e 23 84
e 23 105
e 23 109
e 23 110
e 23 113
e 23 115
e 23 116
e 23 121
e 23 125
e 23 131
e 23 141
e 23 150
e 23 152
e 23 153
e 23 158
e 23 163
e 23 176
e 23 179
e 23 182
e 23 184
e 23 187
e 23 188
e 23 195
e 23 197
e 24 44
e 24 45
e 24 46
e 24 47
e 24 48
e 24 55
e 24 64
e 24 72
e 24 74
e 24 76
e 24 79
e 24 81
e 24 84
e 24 91
e 24 94
e 24 97
e 24 98
e 24 118
e 24 120
e 24 123
e 24 127
e 24 132
e 24 138
e 24 139
e 24 142
e 24 151
e 24 153
e 24 159
e 24 173
e 24 176
e 24 177
e 24 180
e 24 198
e 25 32
e 25 33
e 25 34
e 25 38
e 25 39
e 25 43
e 25 50
e 25 52
e 25 53
e 25 54
e 25 57
e 25 58
e 25 59
e 25 61
e 25 75
e 25 87
e 25 106
e 25 108
e 25 111
e 25 125
e 25 127
e 25 136
e 25 141
e 25 142
e 25 144
e 25 150
e 25 165
e 25 167
e 25 172
e 25 177
e 25 178
e 25 182
e 25 187
e 26 32
e 26 44
e 26 47
e 26 48
e 26 53
e 26 56
e 26 66
e 26 78
e 26 79
e 26 81
e 26 83
e 26 84
e 26 95
e 26 97
e 26 104
e 26 114
e 26 119
e 26 120
e 26 121
e 26 129
e 26 131
e 26 134
e 26 149
e 26 153
e 26 164
e 26 167
e 26 171
e 26 173
e 26 175
e 26 176
e 26 180
e 26 186
e 26 187
e 27 30
e 27 37
e 27 44
e 27 51
e 27 52
e 27 53
e 27 63
e 27 67
e 27 72
e 27 77
e 27 80
e 27 81
e 27 83
e 27 85
e 27 87
e 27 90
e 27 95
e 27 96
e 27 102
e 27 109
e 27 117
e 27 118
e 27 125
e 27 127
e 27 130
e 27 134
e 27 139
e 27 143
e 27 162
e 27 166
e 27 170
e 27 172
e 27 176
e 27 180
e 27 190
e 27 191
e 27 192
e 27 193
e 27 200
e 28 36
e 28 53
e 28 72
e 28 77
e 28 80
e 28 82
e 28 90
e 28 93
e 28 98
e 28 100
e 28 102
e 28 108
e 28 109
e 28 115
e 28 119
e 28 126
e 28 128
e 28 130
e 28 132
e 28 134
e 28 136
e 28 139
e 28 147
e 28 148
e 28 153
e 28 156
e 28 157
e 28 162
e 28 170
e 28 175
e 28 179
e 28 185
e 28 187
e 28 194
e 28 195
e 28 196
e 29 40
e 29 45
e 29 46
e 29 54
e 29 60
e 29 65
e 29 68
e 29 70
e 29 77
e 29 83
e 29 90
e 29 92
e 29 95
e 29 113
e 29 123
e 29 126
e 29 142
e 29 153
e 29 156
e 29 173
e 29 186
e 29 190
e 29 191
e 29 195
e 29 197
e 30 34
e 30 41
e 30 46
e 30 49
e 30 50
e 30 52
e 30 54
e 30 56
e 30 60
e 30 63
e 30 71
e 30 77
e 30 79
e 30 86
e 30 90
e 30 91
e 30 97
e 30 125
e 30 128
e 30 131
e 30 133
e 30 137
e 30 142
e 30 143
e 30 160
e 30 161
e 30 163
e 30 164
e 30 174
e 30 175
e 30 181
e 30 182
e 30 185
e 30 186
e 30 189
e 30 193
e 30 196
e 30 198
e 31 38
e 31 50
e 31 52
e 31 64
e 31 67
e 31 71
e 31 72
e 31 75
e 31 80
e 31 95
e 31 96
e 31 112
e 31 113
e 31 131
e 31 132
e 31 134
e 31 142
e 31 148
e 31 149
e 31 158
e 31 163
e 31 164
e 31 177
e 31 178
e 31 181
e 31 182
e 31 187
e 31 189
e 31 190
e 31 191
e 31 194
e 31 198
e 32 36
e 32 40
e 32 44
e 32 49
e 32 51
e 32 56
e 32 58
e 32 65
e 32 66
e 32 67
e 32 69
e 32 70
e 32 71
e 32 72
e 32 73
e 32 77
e 32 78
e 32 79
e 32 83
e 32 86
e 32 87
e 32 94
e 32 109
e 32 111
e 32 126
e 32 128
e 32 130
e 32 132
e 32 133
e 32 139
e 32 140
e 32 141
e 32 146
e 32 156
e 32 157
e 32 162
e 32 172
e 32 190
e 32 193
e 33 36
e 33 39
e 33 40
e 33 48
e 33 56
e 33 57
e 33 59
e 33 66
e 33 70
e 33 71
e 33 78
e 33 80
e 33 81
e 33 85
e 33 92
e 33 94
e 33 103
e 33 115
e 33 118
e 33 123
e 33 127
e 33 128
e 33 131
e 33 133
e 33 134
e 33 136
e 33 137
e 33 138
e 33 144
e 33 145
e 33 147
e 33 156
e 33 157
e 33 165
e 33 169
e 33 172
e 33 186
e 33 191
e 33 193
e 33 194
e 33 197
e 34 41
e 34 43
e 34 48
e 34 52
e 34 57
e 34 60
e 34 64
e 34 67
e 34 68
e 34 69
e 34 71
e 34 72
e 34 74
e 34 79
e 34 81
e 34 82
e 34 87
e 34 95
e 34 101
e 34 127
e 34 129
e 34 130
e 34 136
e 34 137
e 34 138
e 34 139
e 34 141
e 34 143
e 34 152
e 34 155
e 34 160
e 34 163
e 34 165
e 34 171
e 34 189
e 34 197
e 34 200
e 35 59
e 35 69
e 35 84
e 35 87
e 35 92
e 35 105
e 35 115
e 35 117
e 35 119
e 35 130
e 35 143
e 35 147
e 35 156
e 35 159
e 35 162
e 35 168
e 35 172
e 35 182
e 35 186
e 35 188
e 35 192
e 36 47
e 36 64
e 36 66
e 36 67
e 36 71
e 36 74
e 36 76
e 36 82
e 36 87
e 36 97
e 36 98
e 36 99
e 36 103
e 36 110
e 36 117
e 36 138
e 36 139
e 36 140
e 36 142
e 36 154
e 36 159
e 36 163
e 36 171
e 36 185
e 36 191
e 36 198
e 37 45
e 37 50
e 37 59
e 37 61
e 37 65
e 37 81
e 37 82
e 37 83
e 37 90
e 37 92
e 37 93
e 37 96
e 37 98
e 37 100
e 37 101
e 37 105
e 37 111
e 37 125
e 37 127
e 37 129
e 37 132
e 37 143
e 37 144
e 37 148
e 37 151
e 37 152
e 37 154
e 37 157
e 37 158
e 37 165
e 37 173
e 37 178
e 37 179
e 37 181
e 37 188
e 37 190
e 37 197
e 38 45
e 38 49
e 38 61
e 38 70
e 38 71
e 38 80
e 38 82
e 38 83
e 38 87
e 38 89
e 38 102
e 38 108
e 38 115
e 38 121
e 38 131
e 38 139
e 38 143
e 38 155
e 38 160
e 38 161
e 38 164
e 38 165
e 38 167
e 38 173
e 38 177
e 38 181
e 38 200
e 39 41
e 39 43
e 39 50
e 39 52
e 39 66
e 39 75
e 39 82
e 39 83
e 39 87
e 39 88
e 39 100
e 39 111
e 39 113
e 39 116
e 39 117
e 39 122
e 39 126
e 39 135
e 39 136
e 39 142
e 39 143
e 39 144
e 39 151
e 39 160
e 39 162
e 39 164
e 39 166
e 39 168
e 39 169
e 39 170
e 39 175
e 39 180
e 39 194
e 39 196
e 39 198
e 39 200
e 40 43
e 40 44
e 40 47
e 40 78
e 40 80
e 40 81
e 40 87
e 40 91
e 40 98
e 40 106
e 40 107
e 40 110
e 40 122
e 40 129
e 40 130
e 40 131
e 40 139
e 40 141
e 40 144
e 40 147
e 40 152
e 40 155
e 40 158
e 40 164
e 40 165
e 40 170
e 40 176
e 40 181
e 40 182
e 40 187
e 40 189
e 40 199
e 41 44
e 41 54
e 41 57
e 41 58
e 41 64
e 41 65
e 41 66
e 41 70
e 41 75
e 41 83
e 41 88
e 41 102
e 41 115
e 41 127
e 41 129
e 41 132
e 41 135
e 41 143
e 41 153
e 41 154
e 41 156
e 41 159
e 41 163
e 41 167
e 41 170
e 41 172
e 41 182
e 41 186
e 41 187
e 41 193
e 41 196
e 42 43
e 42 46
e 42 51
e 42 52
e 42 54
e 42 57
e 42 65
e 42 68
e 42 76
e 42 77
e 42 82
e 42 84
e 42 86
e 42 92
e 42 97
e 42 98
e 42 113
e 42 116
e 42 120
e 42 128
e 42 129
e 42 132
e 42 134
e 42 144
e 42 151
e 42 155
e 42 158
e 42 161
e 42 168
e 42 171
e 42 174
e 42 175
e 42 182
e 42 186
e 42 189
e 42 191
e 42 193
e 42 197
e 43 45
e 43 52
e 43 58
e 43 59
e 43 60
e 43 61
e 43 63
e 43 72
e 43 73
e 43 81
e 43 82
e 43 83
e 43 86
e 43 93
e 43 102
e 43 105
e 43 112
e 43 118
e 43 120
e 43 121
e 43 124
e 43 125
e 43 128
e 43 129
e 43 130
e 43 131
e 43 138
e 43 140
e 43 143
e 43 160
e 43 163
e 43 165
e 43 175
e 43 176
e 43 183
e 43 186
e 43 192
e 43 194
e 43 196
e 43 197
e 43 199
e 44 46
e 44 49
e 44 57
e 44 61
e 44 63
e 44 65
e 44 67
e 44 72
e 44 74
e 44 75
e 44 83
e 44 86
e 44 104
e 44 112
e 44 116
e 44 119
e 44 120
e 44 132
e 44 135
e 44 141
e 44 153
e 44 154
e 44 155
e 44 156
e 44 157
e 44 161
e 44 167
e 44 183
e 44 191
e 44 193
e 44 194
e 44 195
e 44 197
e 44 200
e 45 52
e 45 53
e 45 65
e 45 66
e 45 67
e 45 76
e 45 77
e 45 81
e 45 82
e 45 85
e 45 87
e 45 92
e 45 94
e 45 104
e 45 105
e 45 108
e 45 114
e 45 117
e 45 121
e 45 123
e 45 124
e 45 128
e 45 133
e 45 135
e 45 144
e 45 151
e 45 152
e 45 155
e 45 160
e 45 162
e 45 172
e 45 178
e 45 185
e 45 192
e 45 199
e 46 50
e 46 54
e 46 56
e 46 60
e 46 70
e 46 81
e 46 84
e 46 94
e 46 95
e 46 98
e 46 99
e 46 100
e 46 105
e 46 111
e 46 117
e 46 121
e 46 126
e 46 130
e 46 132
e 46 139
e 46 142
e 46 143
e 46 146
e 46 147
e 46 150
e 46 151
e 46 152
e 46 154
e 46 155
e 46 156
e 46 158
e 46 165
e 46 167
e 46 169
e 46 174
e 46 181
e 46 184
e 46 194
e 47 48
e 47 52
e 47 54
e 47 67
e 47 73
e 47 76
e 47 82
e 47 85
e 47 93
e 47 99
e 47 102
e 47 104
e 47 105
e 47 106
e 47 107
e 47 109
e 47 111
e 47 113
e 47 118
e 47 119
e 47 130
e 47 131
e 47 138
e 47 140
e 47 143
e 47 145
e 47 149
e 47 150
e 47 157
e 47 163
e 47 175
e 47 185
e 47 188
e 47 189
e 47 198
e 47 200
e 48 51
e 48 58
e 48 71
e 48 72
e 48 82
e 48 88
e 48 91
e 48 99
e 48 101
e 48 104
e 48 107
e 48 109
e 48 112
e 48 113
e 48 114
e 48 130
e 48 138
e 48 141
e 48 143
e 48 147
e 48 153
e 48 159
e 48 168
e 48 174
e 48 184
e 48 195
e 48 196
e 49 51
e 49 54
e 49 68
e 49 74
e 49 85
e 49 95
e 49 96
e 49 98
e 49 100
e 49 103
e 49 106
e 49 108
e 49 121
e 49 128
e 49 132
e 49 143
e 49 145
e 49 146
e 49 154
e 49 155
e 49 165
e 49 168
e 49 169
e 49 173
e 49 175
e 49 178
e 49 185
e 49 187
e 49 188
e 49 191
e 49 192
e 49 193
e 49 195
e 49 196
e 49 197
e 50 51
e 50 65
e 50 75
e 50 76
e 50 85
e 50 89
e 50 94
e 50 98
e 50 103
e 50 104
e 50 106
e 50 107
e 50 117
e 50 121
e 50 134
e 50 137
e 50 146
e 50 151
e 50 154
e 50 164
e 50 171
e 50 173
e 50 177
e 50 178
e 50 180
e 50 183
e 50 194
e 50 195
e 51 53
e 51 61
e 51 68
e 51 72
e 51 75
e 51 86
e 51 89
e 51 91
e 51 98
e 51 99
e 51 108
e 51 109
e 51 116
e 51 118
e 51 125
e 51 132
e 51 141
e 51 143
e 51 154
e 51 161
e 51 164
e 51 174
e 51 187
e 51 190
e 51 191
e 51 193
e 51 196
e 51 199
e 52 57
e 52 61
e 52 62
e 52 67
e 52 69
e 52 71
e 52 75
e 52 81
e 52 82
e 52 94
e 52 96
e 52 97
e 52 98
e 52 100
e 52 102
e 52 104
e 52 108
e 52 113
e 52 114
e 52 119
e 52 120
e 52 129
e 52 132
e 52 141
e 52 152
e 52 153
e 52 155
e 52 162
e 52 174
e 52 187
e 52 193
e 52 197
e 53 65
e 53 69
e 53 72
e 53 75
e 53 76
e 53 77
e 53 81
e 53 87
e 53 96
e 53 102
e 53 106
e 53 108
e 53 115
e 53 120
e 53 124
e 53 129
e 53 130
e 53 140
e 53 143
e 53 147
e 53 156
e 53 163
e 53 164
e 53 172
e 53 177
e 53 189
e 53 196
e 53 199
e 54 56
e 54 57
e 54 68
e 54 69
e 54 72
e 54 75
e 54 78
e 54 80
e 54 83
e 54 89
e 54 90
e 54 91
e 54 95
e 54 98
e 54 101
e 54 103
e 54 105
e 54 107
e 54 109
e 54 116
e 54 123
e 54 124
e 54 131
e 54 136
e 54 137
e 54 144
e 54 145
e 54 147
e 54 150
e 54 158
e 54 164
e 54 168
e 54 170
e 54 178
e 55 63
e 55 66
e 55 70
e 55 71
e 55 85
e 55 87
e 55 89
e 55 98
e 55 100
e 55 103
e 55 109
e 55 114
e 55 118
e 55 121
e 55 126
e 55 128
e 55 133
e 55 134
e 55 144
e 55 146
e 55 153
e 55 165
e 55 166
e 55 173
e 55 184
e 55 192
e 55 194
e 56 59
e 56 64
e 56 68
e 56 74
e 56 83
e 56 86
e 56 92
e 56 98
e 56 105
e 56 106
e 56 110
e 56 112
e 56 114
e 56 117
e 56 122
e 56 123
e 56 131
e 56 134
e 56 139
e 56 141
e 56 142
e 56 153
e 56 156
e 56 158
e 56 160
e 56 163
e 56 165
e 56 169
e 56 177
e 56 182
e 56 186
e 56 188
e 56 192
e 56 195
e 57 63
e 57 67
e 57 75
e 57 76
e 57 79
e 57 84
e 57 86
e 57 88
e 57 91
e 57 96
e 57 99
e 57 102
e 57 103
e 57 113
e 57 119
e 57 122
e 57 131
e 57 140
e 57 146
e 57 148
e 57 149
e 57 156
e 57 158
e 57 160
e 57 161
e 57 174
e 57 179
e 57 190
e 57 194
e 57 197
e 58 60
e 58 61
e 58 69
e 58 71
e 58 85
e 58 88
e 58 90
e 58 94
e 58 105
e 58 106
e 58 118
e 58 122
e 58 126
e 58 130
e 58 131
e 58 135
e 58 139
e 58 150
e 58 153
e 58 155
e 58 158
e 58 162
e 58 165
e 58 185
e 58 187
e 58 189
e 59 69
e 59 75
e 59 81
e 59 82
e 59 87
e 59 95
e 59 96
e 59 101
e 59 103
e 59 104
e 59 106
e 59 108
e 59 111
e 59 115
e 59 131
e 59 135
e 59 144
e 59 145
e 59 150
e 59 156
e 59 159
e 59 161
e 59 164
e 59 165
e 59 167
e 59 168
e 59 174
e 59 175
e 59 176
e 59 177
e 59 183
e 59 184
e 59 197
e 60 65
e 60 68
e 60 72
e 60 89
e 60 90
e 60 92
e 60 95
e 60 103
e 60 105
e 60 109
e 60 110
e 60 113
e 60 118
e 60 119
e 60 121
e 60 127
e 60 129
e 60 136
e 60 141
e 60 145
e 60 149
e 60 154
e 60 156
e 60 175
e 60 177
e 60 180
e 60 181
e 60 186
e 60 189
e 60 196
e 60 197
e 60 199
e 61 62
e 61 64
e 61 72
e 61 80
e 61 82
e 61 84
e 61 91
e 61 97
e 61 98
e 61 99
e 61 101
e 61 103
e 61 105
e 61 110
e 61 111
e 61 114
e 61 117
e 61 118
e 61 121
e 61 125
e 61 126
e 61 129
e 61 139
e 61 140
e 61 141
e 61 149
e 61 150
e 61 153
e 61 157
e 61 163
e 61 167
e 61 174
e 61 182
e 61 186
e 61 187
e 61 189
e 61 191
e 61 198
e 61 200
e 62 63
e 62 67
e 62 69
e 62 70
e 62 73
e 62 82
e 62 86
e 62 87
e 62 114
e 62 122
e 62 124
e 62 130
e 62 131
e 62 140
e 62 146
e 62 150
e 62 154
e 62 167
e 62 174
e 62 177
e 62 178
e 62 180
e 62 188
e 62 194
e 62 199
e 63 65
e 63 71
e 63 88
e 63 93
e 63 105
e 63 121
e 63 132
e 63 142
e 63 145
e 63 146
e 63 149
e 63 157
e 63 168
e 63 169
e 63 174
e 63 175
e 63 184
e 63 186
e 63 187
e 63 188
e 63 190
e 63 192
e 63 194
e 63 195
e 63 197
e 63 198
e 63 200
e 64 67
e 64 68
e 64 69
e 64 70
e 64 71
e 64 73
e 64 82
e 64 83
e 64 86
e 64 93
e 64 94
e 64 109
e 64 113
e 64 114
e 64 125
e 64 127
e 64 136
e 64 141
e 64 169
e 64 174
e 64 175
e 64 176
e 64 179
e 64 191
e 64 192
e 65 76
e 65 80
e 65 92
e 65 94
e 65 99
e 65 102
e 65 106
e 65 110
e 65 116
e 65 117
e 65 122
e 65 126
e 65 127
e 65 129
e 65 132
e 65 136
e 65 137
e 65 141
e 65 173
e 65 174
e 65 177
e 65 182
e 65 183
e 65 187
e 65 190
e 65 194
e 65 197
e 66 75
e 66 80
e 66 83
e 66 86
e 66 88
e 66 89
e 66 94
e 66 100
e 66 103
e 66 111
e 66 113
e 66 127
e 66 133
e 66 135
e 66 136
e 66 138
e 66 139
e 66 142
e 66 150
e 66 160
e 66 161
e 66 163
e 66 166
e 66 171
e 66 172
e 66 177
e 66 178
e 66 186
e 66 195
e 67 69
e 67 72
e 67 94
e 67 102
e 67 114
e 67 121
e 67 125
e 67 127
e 67 130
e 67 153
e 67 154
e 67 158
e 67 159
e 67 163
e 67 174
e 67 181
e 67 182
e 67 183
e 67 184
e 67 191
e 67 193
e 67 194
e 67 200
e 68 70
e 68 72
e 68 76
e 68 79
e 68 82
e 68 83
e 68 88
e 68 94
e 68 101
e 68 109
e 68 110
e 68 113
e 68 118
e 68 119
e 68 123
e 68 125
e 68 133
e 68 135
e 68 137
e 68 148
e 68 156
e 68 159
e 68 165
e 68 168
e 68 172
e 68 176
e 68 181
e 68 200
e 69 76
e 69 77
e 69 87
e 69 88
e 69 91
e 69 93
e 69 95
e 69 96
e 69 97
e 69 115
e 69 116
e 69 117
e 69 118
e 69 119
e 69 120
e 69 128
e 69 131
e 69 149
e 69 152
e 69 154
e 69 159
e 69 161
e 69 165
e 69 166
e 69 173
e 69 182
e 69 188
e 69 190
e 69 191
e 69 194
e 69 198
e 70 80
e 70 85
e 70 90
e 70 92
e 70 105
e 70 106
e 70 109
e 70 113
e 70 116
e 70 118
e 70 120
e 70 123
e 70 135
e 70 139
e 70 141
e 70 143
e 70 154
e 70 160
e 70 166
e 70 167
e 70 168
e 70 172
e 70 181
e 70 182
e 70 188
e 70 190
e 70 199
e 71 78
e 71 81
e 71 85
e 71 86
e 71 88
e 71 112
e 71 114
e 71 130
e 71 133
e 71 138
e 71 140
e 71 142
e 71 151
e 71 153
e 71 161
e 71 165
e 71 170
e 71 173
e 71 174
e 71 175
e 71 189
e 71 192
e 71 197
e 72 77
e 72 78
e 72 84
e 72 95
e 72 100
e 72 111
e 72 115
e 72 117
e 72 123
e 72 124
e 72 130
e 72 131
e 72 133
e 72 143
e 72 149
e 72 150
e 72 161
e 72 162
e 72 167
e 72 169
e 72 170
e 72 175
e 72 180
e 72 196
e 72 200
e 73 77
e 73 83
e 73 84
e 73 86
e 73 88
e 73 89
e 73 94
e 73 112
e 73 116
e 73 122
e 73 127
e 73 133
e 73 138
e 73 142
e 73 158
e 73 165
e 73 166
e 73 167
e 73 174
e 73 178
e 73 180
e 73 187
e 73 191
e 73 198
e 74 79
e 74 96
e 74 104
e 74 113
e 74 114
e 74 115
e 74 118
e 74 120
e 74 121
e 74 123
e 74 126
e 74 128
e 74 133
e 74 134
e 74 141
e 74 144
e 74 147
e 74 151
e 74 158
e 74 161
e 74 163
e 74 166
e 74 169
e 74 171
e 74 181
e 74 186
e 74 194
e 75 76
e 75 77
e 75 78
e 75 79
e 75 85
e 75 90
e 75 92
e 75 98
e 75 105
e 75 106
e 75 107
e 75 108
e 75 111
e 75 130
e 75 133
e 75 135
e 75 137
e 75 150
e 75 156
e 75 160
e 75 165
e 75 170
e 75 175
e 75 187
e 75 191
e 75 195
e 75 196
e 75 197
e 75 199
e 76 87
e 76 89
e 76 90
e 76 92
e 76 98
e 76 101
e 76 102
e 76 103
e 76 105
e 76 114
e 76 123
e 76 126
e 76 127
e 76 133
e 76 141
e 76 148
e 76 149
e 76 150
e 76 156
e 76 169
e 76 179
e 76 183
e 76 186
e 76 194
e 76 195
e 77 85
e 77 101
e 77 106
e 77 109
e 77 110
e 77 113
e 77 116
e 77 123
e 77 126
e 77 129
e 77 132
e 77 136
e 77 137
e 77 139
e 77 146
e 77 155
e 77 161
e 77 167
e 77 168
e 77 174
e 77 176
e 77 180
e 77 181
e 77 187
e 77 188
e 77 189
e 77 191
e 78 90
e 78 93
e 78 94
e 78 96
e 78 104
e 78 105
e 78 110
e 78 112
e 78 113
e 78 120
e 78 122
e 78 132
e 78 145
e 78 152
e 78 156
e 78 158
e 78 160
e 78 169
e 78 175
e 78 179
e 78 180
e 78 181
e 78 183
e 78 191
e 78 193
e 78 196
e 79 80
e 79 85
e 79 98
e 79 101
e 79 102
e 79 103
e 79 109
e 79 110
e 79 111
e 79 114
e 79 127
e 79 132
e 79 137
e 79 139
e 79 140
e 79 141
e 79 143
e 79 147
e 79 150
e 79 152
e 79 155
e 79 174
e 79 177
e 79 179
e 79 181
e 79 183
e 79 184
e 79 185
e 79 190
e 79 194
e 79 195
e 79 196
e 80 82
e 80 85
e 80 88
e 80 92
e 80 99
e 80 108
e 80 113
e 80 117
e 80 120
e 80 121
e 80 130
e 80 133
e 80 134
e 80 145
e 80 147
e 80 148
e 80 153
e 80 160
e 80 164
e 80 169
e 80 171
e 80 173
e 80 179
e 80 199
e 81 84
e 81 89
e 81 96
e 81 98
e 81 104
e 81 107
e 81 113
e 81 115
e 81 116
e 81 118
e 81 124
e 81 133
e 81 136
e 81 138
e 81 142
e 81 145
e 81 149
e 81 157
e 81 161
e 81 169
e 81 172
e 81 173
e 81 174
e 81 175
e 81 178
e 81 180
e 81 190
e 81 193
e 81 197
e 82 97
e 82 100
e 82 107
e 82 108
e 82 119
e 82 122
e 82 127
e 82 134
e 82 139
e 82 140
e 82 146
e 82 147
e 82 150
e 82 152
e 82 153
e 82 156
e 82 161
e 82 162
e 82 172
e 82 174
e 82 175
e 82 177
e 82 178
e 82 181
e 82 189
e 82 190
e 82 191
e 82 193
e 83 89
e 83 90
e 83 101
e 83 104
e 83 109
e 83 111
e 83 126
e 83 132
e 83 136
e 83 138
e 83 139
e 83 140
e 83 151
e 83 153
e 83 155
e 83 156
e 83 165
e 83 168
e 83 170
e 83 176
e 83 184
e 83 185
e 83 189
e 83 190
e 83 193
e 83 198
e 83 200
e 84 85
e 84 93
e 84 97
e 84 98
e 84 101
e 84 102
e 84 113
e 84 121
e 84 128
e 84 130
e 84 131
e 84 137
e 84 150
e 84 151
e 84 155
e 84 157
e 84 161
e 84 162
e 84 164
e 84 180
e 84 183
e 84 184
e 84 189
e 84 196
e 85 92
e 85 93
e 85 94
e 85 95
e 85 97
e 85 104
e 85 118
e 85 119
e 85 121
e 85 122
e 85 125
e 85 139
e 85 140
e 85 141
e 85 143
e 85 144
e 85 148
e 85 154
e 85 156
e 85 157
e 85 159
e 85 162
e 85 163
e 85 166
e 85 177
e 85 180
e 85 183
e 85 185
e 85 186
e 85 188
e 85 189
e 85 190
e 85 199
e 86 93
e 86 100
e 86 106
e 86 111
e 86 116
e 86 118
e 86 131
e 86 132
e 86 135
e 86 138
e 86 147
e 86 148
e 86 149
e 86 150
e 86 155
e 86 160
e 86 168
e 86 169
e 86 174
e 86 176
e 86 178
e 86 179
e 86 180
e 86 185
e 87 88
e 87 91
e 87 102
e 87 103
e 87 104
e 87 107
e 87 111
e 87 119
e 87 123
e 87 130
e 87 134
e 87 135
e 87 138
e 87 154
e 87 161
e 87 163
e 87 165
e 87 168
e 87 169
e 87 174
e 87 177
e 87 178
e 87 181
e 87 182
e 87 183
e 87 187
e 87 188
e 87 192
e 87 198
e 87 199
e 88 90
e 88 100
e 88 111
e 88 119
e 88 120
e 88 123
e 88 126
e 88 128
e 88 140
e 88 144
e 88 148
e 88 160
e 88 177
e 88 189
e 88 195
e 88 196
e 88 197
e 89 93
e 89 95
e 89 96
e 89 99
e 89 106
e 89 109
e 89 118
e 89 119
e 89 121
e 89 126
e 89 129
e 89 139
e 89 140
e 89 148
e 89 149
e 89 154
e 89 156
e 89 157
e 89 161
e 89 163
e 89 168
e 89 171
e 89 176
e 89 186
e 89 187
e 90 91
e 90 100
e 90 101
e 90 103
e 90 104
e 90 106
e 90 107
e 90 115
e 90 119
e 90 127
e 90 130
e 90 153
e 90 158
e 90 160
e 90 166
e 90 169
e 90 171
e 90 173
e 90 174
e 90 175
e 90 176
e 90 177
e 90 189
e 90 193
e 91 96
e 91 101
e 91 109
e 91 110
e 91 112
e 91 115
e 91 117
e 91 118
e 91 123
e 91 126
e 91 132
e 91 133
e 91 139
e 91 140
e 91 146
e 91 157
e 91 161
e 91 163
e 91 174
e 91 184
e 91 189
e 92 106
e 92 114
e 92 115
e 92 124
e 92 126
e 92 129
e 92 140
e 92 141
e 92 144
e 92 145
e 92 147
e 92 158
e 92 159
e 92 160
e 92 163
e 92 164
e 92 175
e 92 190
e 92 192
e 92 195
e 93 100
e 93 102
e 93 104
e 93 105
e 93 106
e 93 111
e 93 112
e 93 113
e 93 114
e 93 116
e 93 120
e 93 131
e 93 134
e 93 141
e 93 142
e 93 143
e 93 145
e 93 146
e 93 147
e 93 149
e 93 154
e 93 155
e 93 156
e 93 161
e 93 162
e 93 165
e 93 173
e 93 180
e 93 183
e 93 186
e 93 187
e 93 191
e 93 194
e 93 195
e 93 200
e 94 98
e 94 105
e 94 107
e 94 108
e 94 110
e 94 116
e 94 120
e 94 125
e 94 127
e 94 133
e 94 139
e 94 141
e 94 144
e 94 147
e 94 151
e 94 158
e 94 159
e 94 161
e 94 163
e 94 166
e 94 173
e 94 174
e 94 179
e 94 187
e 94 191
e 94 195
e 95 102
e 95 108
e 95 119
e 95 120
e 95 121
e 95 126
e 95 134
e 95 135
e 95 137
e 95 155
e 95 161
e 95 170
e 95 175
e 95 182
e 95 186
e 95 187
e 95 194
e 95 196
e 95 197
e 95 199
e 96 97
e 96 100
e 96 104
e 96 107
e 96 108
e 96 109
e 96 115
e 96 120
e 96 121
e 96 133
e 96 142
e 96 145
e 96 147
e 96 152
e 96 160
e 96 170
e 96 171
e 96 174
e 96 176
e 96 178
e 96 181
e 96 183
e 96 184
e 96 191
e 97 102
e 97 104
e 97 108
e 97 109
e 97 112
e 97 113
e 97 116
e 97 117
e 97 133
e 97 138
e 97 153
e 97 155
e 97 167
e 97 171
e 97 173
e 97 174
e 97 184
e 97 185
e 97 192
e 97 193
e 98 113
e 98 118
e 98 119
e 98 122
e 98 125
e 98 130
e 98 134
e 98 139
e 98 143
e 98 149
e 98 156
e 98 169
e 98 177
e 98 183
e 99 102
e 99 105
e 99 109
e 99 114
e 99 116
e 99 121
e 99 122
e 99 123
e 99 125
e 99 127
e 99 128
e 99 133
e 99 137
e 99 142
e 99 146
e 99 147
e 99 149
e 99 156
e 99 158
e 99 161
e 99 162
e 99 168
e 99 198
e 100 106
e 100 110
e 100 113
e 100 117
e 100 123
e 100 128
e 100 132
e 100 137
e 100 138
e 100 142
e 100 143
e 100 146
e 100 153
e 100 158
e 100 165
e 100 166
e 100 173
e 100 176
e 100 177
e 100 178
e 100 182
e 100 185
e 100 186
e 100 194
e 100 198
e 100 199
e 101 108
e 101 109
e 101 110
e 101 124
e 101 128
e 101 130
e 101 138
e 101 148
e 101 152
e 101 153
e 101 158
e 101 161
e 101 162
e 101 166
e 101 169
e 101 175
e 101 185
e 101 186
e 101 189
e 101 192
e 101 196
e 102 107
e 102 116
e 102 118
e 102 122
e 102 131
e 102 142
e 102 150
e 102 154
e 102 157
e 102 158
e 102 163
e 102 174
e 102 184
e 102 185
e 102 188
e 102 192
e 102 197
e 103 104
e 103 114
e 103 121
e 103 123
e 103 128
e 103 133
e 103 138
e 103 147
e 103 154
e 103 155
e 103 166
e 103 167
e 103 169
e 103 170
e 103 181
e 103 183
e 103 191
e 103 195
e 103 199
e 104 107
e 104 108
e 104 114
e 104 131
e 104 137
e 104 144
e 104 147
e 104 158
e 104 162
e 104 163
e 104 165
e 104 166
e 104 168
e 104 187
e 104 188
e 104 190
e 104 200
e 105 109
e 105 110
e 105 111
e 105 115
e 105 118
e 105 123
e 105 132
e 105 137
e 105 141
e 105 155
e 105 168
e 105 174
e 105 176
e 105 179
e 105 181
e 105 186
e 105 199
e 106 109
e 106 110
e 106 112
e 106 113
e 106 121
e 106 125
e 106 126
e 106 132
e 106 133
e 106 135
e 106 137
e 106 138
e 106 143
e 106 144
e 106 145
e 106 146
e 106 150
e 106 154
e 106 159
e 106 164
e 106 169
e 106 173
e 106 175
e 106 176
e 106 186
e 106 190
e 106 191
e 106 196
e 107 110
e 107 112
e 107 113
e 107 124
e 107 137
e 107 146
e 107 147
e 107 150
e 107 163
e 107 166
e 107 168
e 107 172
e 107 178
e 107 179
e 107 181
e 107 185
e 107 196
e 107 199
e 108 114
e 108 121
e 108 122
e 108 123
e 108 128
e 108 131
e 108 138
e 108 146
e 108 151
e 108 152
e 108 166
e 108 173
e 108 179
e 108 180
e 108 189
e 108 193
e 109 117
e 109 118
e 109 121
e 109 124
e 109 125
e 109 126
e 109 136
e 109 143
e 109 150
e 109 156
e 109 163
e 109 164
e 109 181
e 109 183
e 109 189
e 109 192
e 109 193
e 109 199
e 110 124
e 110 126
e 110 128
e 110 129
e 110 130
e 110 132
e 110 141
e 110 145
e 110 146
e 110 152
e 110 154
e 110 158
e 110 161
e 110 163
e 110 166
e 110 167
e 110 172
e 110 173
e 110 181
e 110 188
e 110 189
e 110 193
e 110 194
e 110 195
e 110 199
e 110 200
e 111 116
e 111 126
e 111 138
e 111 140
e 111 141
e 111 143
e 111 154
e 111 155
e 111 162
e 111 164
e 111 166
e 111 172
e 111 176
e 111 190
e 111 192
e 111 197
e 111 199
e 112 118
e 112 121
e 112 122
e 112 124
e 112 127
e 112 128
e 112 129
e 112 131
e 112 133
e 112 135
e 112 139
e 112 141
e 112 142
e 112 150
e 112 157
e 112 159
e 112 170
e 112 174
e 112 178
e 112 181
e 112 184
e 112 188
e 112 193
e 112 197
e 112 198
e 112 200
e 113 115
e 113 120
e 113 126
e 113 129
e 113 131
e 113 140
e 113 142
e 113 145
e 113 147
e 113 153
e 113 155
e 113 157
e 113 158
e 113 170
e 113 171
e 113 185
e 113 197
e 114 143
e 114 144
e 114 150
e 114 156
e 114 159
e 114 162
e 114 170
e 114 176
e 114 177
e 114 180
e 114 181
e 114 183
e 114 188
e 114 189
e 114 190
e 114 193
e 114 195
e 114 197
e 115 132
e 115 140
e 115 144
e 115 150
e 115 172
e 115 177
e 115 178
e 115 180
e 115 185
e 115 186
e 116 119
e 116 131
e 116 133
e 116 135
e 116 148
e 116 149
e 116 158
e 116 161
e 116 163
e 116 164
e 116 167
e 116 177
e 116 179
e 116 186
e 116 189
e 116 190
e 116 192
e 116 194
e 116 199
e 117 118
e 117 120
e 117 126
e 117 128
e 117 129
e 117 145
e 117 149
e 117 159
e 117 172
e 117 174
e 117 177
e 117 180
e 117 182
e 118 121
e 118 127
e 118 128
e 118 131
e 118 134
e 118 136
e 118 138
e 118 143
e 118 145
e 118 150
e 118 151
e 118 155
e 118 181
e 118 188
e 118 194
e 119 136
e 119 144
e 119 145
e 119 148
e 119 155
e 119 160
e 119 161
e 119 163
e 119 172
e 119 173
e 119 180
e 119 182
e 119 186
e 119 188
e 119 192
e 119 196
e 119 199
e 120 124
e 120 130
e 120 134
e 120 145
e 120 146
e 120 152
e 120 163
e 120 170
e 120 171
e 120 180
e 120 184
e 120 198
e 121 122
e 121 123
e 121 125
e 121 126
e 121 132
e 121 133
e 121 134
e 121 135
e 121 140
e 121 142
e 121 143
e 121 145
e 121 149
e 121 160
e 121 168
e 121 179
e 121 184
e 121 187
e 121 189
e 121 190
e 121 196
e 122 126
e 122 134
e 122 145
e 122 181
e 122 183
e 122 184
e 122 189
e 123 125
e 123 126
e 123 128
e 123 129
e 123 130
e 123 134
e 123 142
e 123 150
e 123 156
e 123 160
e 123 161
e 123 167
e 123 168
e 123 174
e 123 176
e 123 179
e 123 180
e 123 181
e 123 190
e 123 194
e 123 200
e 124 126
e 124 140
e 124 143
e 124 144
e 124 145
e 124 153
e 124 155
e 124 157
e 124 162
e 124 166
e 124 169
e 124 178
e 124 180
e 124 184
e 124 190
e 124 192
e 124 194
e 124 195
e 124 196
e 124 199
e 125 131
e 125 144
e 125 149
e 125 157
e 125 167
e 125 168
e 125 184
e 125 196
e 125 197
e 126 127
e 126 129
e 126 132
e 126 134
e 126 137
e 126 146
e 126 168
e 126 169
e 126 171
e 126 179
e 126 183
e 126 193
e 126 194
e 126 200
e 127 128
e 127 135
e 127 141
e 127 148
e 127 155
e 127 161
e 127 163
e 127 165
e 127 173
e 127 182
e 127 184
e 127 193
e 127 195
e 127 200
e 128 138
e 128 139
e 128 145
e 128 149
e 128 150
e 128 157
e 128 158
e 128 163
e 128 165
e 128 166
e 128 167
e 128 171
e 128 173
e 128 181
e 128 182
e 128 186
e 128 195
e 128 196
e 129 139
e 129 140
e 129 142
e 129 147
e 129 159
e 129 169
e 129 170
e 129 172
e 129 181
e 129 188
e 129 198
e 130 131
e 130 135
e 130 137
e 130 139
e 130 146
e 130 155
e 130 158
e 130 163
e 130 168
e 130 174
e 130 175
e 130 188
e 130 193
e 130 194
e 130 199
e 131 140
e 131 149
e 131 155
e 131 164
e 131 166
e 131 175
e 131 176
e 131 177
e 131 182
e 131 184
e 132 136
e 132 145
e 132 149
e 132 155
e 132 163
e 132 164
e 132 168
e 132 173
e 132 181
e 132 196
e 133 139
e 133 145
e 133 148
e 133 150
e 133 158
e 133 161
e 133 167
e 133 168
e 133 171
e 133 177
e 133 182
e 133 195
e 133 196
e 134 155
e 134 157
e 134 160
e 134 165
e 134 166
e 134 169
e 134 171
e 134 182
e 134 186
e 134 191
e 134 196
e 134 197
e 135 139
e 135 145
e 135 147
e 135 149
e 135 154
e 135 161
e 135 172
e 135 174
e 135 177
e 135 188
e 135 189
e 135 193
e 135 195
e 135 200
e 136 138
e 136 144
e 136 159
e 136 160
e 136 164
e 136 177
e 136 181
e 136 182
e 136 199
e 137 144
e 137 146
e 137 152
e 137 153
e 137 155
e 137 156
e 137 159
e 137 163
e 137 169
e 137 171
e 137 184
e 137 185
e 137 194
e 137 197
e 138 139
e 138 140
e 138 150
e 138 169
e 138 170
e 138 176
e 138 181
e 138 182
e 138 184
e 138 188
e 138 190
e 138 195
e 139 146
e 139 147
e 139 158
e 139 165
e 139 172
e 139 175
e 139 177
e 139 184
e 140 151
e 140 158
e 140 159
e 140 180
e 140 193
e 140 194
e 140 195
e 140 200
e 141 143
e 141 145
e 141 148
e 141 152
e 141 157
e 141 158
e 141 163
e 141 164
e 141 175
e 141 192
e 141 196
e 141 197
e 142 143
e 142 145
e 142 150
e 142 151
e 142 152
e 142 161
e 142 163
e 142 171
e 142 175
e 142 176
e 142 178
e 142 181
e 142 185
e 142 187
e 142 197
e 142 200
e 143 161
e 143 166
e 143 168
e 143 169
e 143 172
e 143 173
e 143 183
e 143 184
e 143 188
e 143 190
e 143 191
e 143 196
e 143 197
e 143 199
e 143 200
e 144 158
e 144 160
e 144 161
e 144 164
e 144 166
e 144 171
e 144 174
e 145 147
e 145 150
e 145 159
e 145 162
e 145 168
e 145 171
e 145 173
e 145 175
e 145 178
e 145 180
e 145 187
e 145 194
e 145 197
e 146 147
e 146 150
e 146 160
e 146 162
e 146 165
e 146 177
e 146 178
e 146 179
e 146 181
e 146 183
e 146 184
e 146 185
e 146 199
e 146 200
e 147 154
e 147 159
e 147 163
e 147 186
e 147 188
e 147 193
e 147 194
e 147 199
e 148 162
e 148 165
e 148 168
e 148 169
e 148 178
e 148 181
e 148 192
e 148 195
e 149 151
e 149 154
e 149 156
e 149 158
e 149 164
e 149 165
e 149 167
e 149 173
e 149 176
e 149 178
e 149 180
e 149 183
e 149 184
e 149 188
e 149 190
e 149 192
e 149 196
e 150 152
e 150 161
e 150 165
e 150 170
e 150 173
e 150 175
e 150 191
e 151 152
e 151 168
e 151 169
e 151 179
e 151 190
e 151 197
e 152 164
e 152 174
e 152 175
e 152 176
e 152 178
e 152 180
e 152 185
e 152 186
e 152 188
e 152 198
e 152 200
e 153 154
e 153 163
e 153 164
e 153 165
e 153 171
e 153 177
e 153 181
e 153 189
e 153 192
e 153 194
e 153 196
e 153 199
e 154 161
e 154 164
e 154 165
e 154 168
e 154 177
e 154 186
e 154 192
e 154 193
e 154 195
e 154 196
e 154 197
e 155 156
e 155 159
e 155 163
e 155 167
e 155 169
e 155 170
e 155 174
e 155 175
e 155 178
e 155 180
e 155 185
e 155 194
e 155 197
e 156 158
e 156 164
e 156 167
e 156 170
e 156 175
e 156 181
e 156 183
e 156 186
e 156 191
e 156 195
e 156 197
e 157 160
e 157 166
e 157 167
e 157 168
e 157 170
e 157 178
e 157 189
e 157 192
e 158 161
e 158 170
e 158 171
e 158 176
e 158 180
e 158 181
e 158 186
e 158 187
e 158 192
e 159 161
e 159 162
e 159 171
e 159 179
e 159 180
e 159 184
e 159 187
e 159 189
e 159 190
e 159 192
e 159 194
e 159 196
e 159 200
e 160 162
e 160 164
e 160 168
e 160 174
e 160 176
e 160 177
e 160 191
e 160 195
e 161 167
e 161 169
e 161 175
e 161 180
e 161 191
e 161 199
e 162 166
e 162 172
e 162 183
e 162 184
e 162 185
e 162 191
e 162 194
e 162 199
e 163 166
e 163 171
e 163 192
e 164 168
e 164 176
e 164 178
e 164 179
e 164 185
e 164 193
e 164 200
e 165 170
e 165 171
e 165 192
e 165 193
e 165 197
e 165 200
e 166 167
e 166 168
e 166 171
e 166 174
e 166 175
e 166 196
e 166 200
e 167 171
e 167 175
e 167 176
e 167 177
e 167 183
e 167 189
e 167 194
e 167 196
e 168 176
e 168 184
e 168 188
e 168 200
e 169 182
e 169 193
e 169 195
e 169 199
e 170 176
e 170 177
e 170 180
e 170 187
e 170 195
e 171 177
e 171 180
e 171 190
e 172 177
e 172 179
e 172 190
e 172 194
e 172 195
e 173 185
e 173 190
e 174 176
e 174 179
e 174 185
e 174 186
e 174 194
e 174 200
e 175 180
e 175 183
e 175 189
e 175 193
e 175 196
e 175 198
e 176 180
e 176 186
e 176 199
e 176 200
e 177 178
e 177 180
e 177 185
e 177 186
e 177 188
e 177 190
e 177 196
e 178 182
e 178 194
e 178 200
e 179 184
e 179 187
e 179 189
e 179 195
e 179 200
e 180 185
e 180 186
e 180 187
e 180 194
e 181 186
e 181 188
e 182 183
e 182 188
e 182 194
e 182 197
e 182 198
e 183 199
e 183 200
e 184 189
e 185 188
e 185 198
e 185 199
e 186 191
e 186 193
e 187 190
e 187 198
e 187 200
e 188 189
e 188 195
e 188 197
e 188 199
e 188 200
e 189 194
e 190 198
e 190 199
e 191 194
e 191 195
e 191 196
e 191 199
e 192 193
e 192 194
e 193 194
e 193 200
e 194 195
e 194 199
e 196 197
e 196 199
e 198 199
